(declare-rel verifier.error (Bool Bool Bool ))
(declare-rel main@entry (Int Int Int ))
(declare-rel main@_17 (Int Int Int Int Int Int Int Int Int ))
(declare-rel main@_19 (Int Int Int Int Int Int Int Int Int Int ))
(declare-rel main@_24 (Int Int Int Int Int Int Int Int Int Int ))
(declare-rel main@_26 (Int Int Int Int Int Int Int Int Int Int Int ))
(declare-rel main@_31 (Int Int Int Int Int Int Int Int Int Int ))
(declare-rel main@_33 (Int Int Int Int Int Int Int Int Int Int Int ))
(declare-rel main@_38 (Int Int Int Int Int Int Int Int Int Int ))
(declare-rel main@_40 (Int Int Int Int Int Int Int Int Int Int Int ))
(declare-rel main@_45 (Int Int Int Int Int Int Int Int Int Int ))
(declare-rel main@_47 (Int Int Int Int Int Int Int Int Int Int Int ))
(declare-rel main@_52 (Int Int Int Int Int Int Int Int Int Int ))
(declare-rel main@_54 (Int Int Int Int Int Int Int Int Int Int Int ))
(declare-rel main@_59 (Int Int Int Int Int Int Int Int Int ))
(declare-rel main@largestGap.exit.i (Int Int Int Int Int Int Int Int Int ))
(declare-rel main@largestGap.exit.i.split ())
(declare-rel main@entry!_BAD ())
(declare-rel main@entry!_Cond (Int Int Int Int Int Int Int Int Int Int ))
(declare-rel main@_19!_Cond (Int Int Int Int Int Int Int Int Int Int Int ))
(declare-rel main@_26!_Cond (Int Int Int Int Int Int Int Int Int Int Int ))
(declare-rel main@_33!_Cond (Int Int Int Int Int Int Int Int Int Int Int ))
(declare-rel main@_40!_Cond (Int Int Int Int Int Int Int Int Int Int Int ))
(declare-rel main@_47!_Cond (Int Int Int Int Int Int Int Int Int Int Int ))
(declare-rel main@_54!_Cond (Int Int Int Int Int Int Int Int Int Int ))
(declare-var main@%_61_0 Bool )
(declare-var main@%spec.select.6_0 Int )
(declare-var main@%_62_0 Int )
(declare-var main@%_63_0 Bool )
(declare-var main@%spec.select3_0 Int )
(declare-var main@%_64_0 Bool )
(declare-var main@%.1.i5.i_0 Int )
(declare-var main@%_65_0 Bool )
(declare-var main@%spec.select3.1_0 Int )
(declare-var main@%_66_0 Bool )
(declare-var main@%.1.i5.i.1_0 Int )
(declare-var main@%_67_0 Bool )
(declare-var main@%spec.select3.2_0 Int )
(declare-var main@%_68_0 Bool )
(declare-var main@%.1.i5.i.2_0 Int )
(declare-var main@%_69_0 Bool )
(declare-var main@%spec.select3.3_0 Int )
(declare-var main@%_70_0 Bool )
(declare-var main@%.1.i5.i.3_0 Int )
(declare-var main@%_71_0 Bool )
(declare-var main@%spec.select3.4_0 Int )
(declare-var main@%_72_0 Bool )
(declare-var main@%.1.i5.i.4_0 Int )
(declare-var main@%_73_0 Bool )
(declare-var main@%spec.select3.5_0 Int )
(declare-var main@%_74_0 Bool )
(declare-var main@%.1.i5.i.5_0 Int )
(declare-var main@%_75_0 Int )
(declare-var main@%_76_0 Bool )
(declare-var main@%_60_0 Int )
(declare-var main@%_55_0 Bool )
(declare-var main@%_56_0 Int )
(declare-var main@%_57_0 Int )
(declare-var main@%_58_0 Bool )
(declare-var main@%_53_0 Int )
(declare-var main@%_48_0 Bool )
(declare-var main@%_49_0 Int )
(declare-var main@%_50_0 Int )
(declare-var main@%_51_0 Bool )
(declare-var main@%_46_0 Int )
(declare-var main@%_41_0 Bool )
(declare-var main@%_42_0 Int )
(declare-var main@%_43_0 Int )
(declare-var main@%_44_0 Bool )
(declare-var main@%_39_0 Int )
(declare-var main@%_34_0 Bool )
(declare-var main@%_35_0 Int )
(declare-var main@%_36_0 Int )
(declare-var main@%_37_0 Bool )
(declare-var main@%_32_0 Int )
(declare-var main@%_27_0 Bool )
(declare-var main@%_28_0 Int )
(declare-var main@%_29_0 Int )
(declare-var main@%_30_0 Bool )
(declare-var main@%_25_0 Int )
(declare-var main@%_20_0 Bool )
(declare-var main@%_21_0 Int )
(declare-var main@%_22_0 Int )
(declare-var main@%_23_0 Bool )
(declare-var main@%_18_0 Int )
(declare-var main@%_0_0 Int )
(declare-var @nd_0 Int )
(declare-var main@%_2_0 Int )
(declare-var main@%_4_0 Int )
(declare-var main@%_6_0 Int )
(declare-var main@%_8_0 Int )
(declare-var main@%_10_0 Int )
(declare-var main@%_12_0 Int )
(declare-var main@%_14_0 Int )
(declare-var main@%_15_0 Int )
(declare-var main@%_16_0 Bool )
(declare-var @g_0 Int )
(declare-var @find_condition_0 Int )
(declare-var main@entry_0 Bool )
(declare-var main@%_1_0 Int )
(declare-var main@%_3_0 Int )
(declare-var main@%_5_0 Int )
(declare-var main@%_7_0 Int )
(declare-var main@%_9_0 Int )
(declare-var main@%_11_0 Int )
(declare-var main@%_13_0 Int )
(declare-var main@_17_0 Bool )
(declare-var main@_19_0 Bool )
(declare-var main@%.13.i.i_0 Int )
(declare-var main@%.13.i.i_1 Int )
(declare-var main@%spec.select_0 Int )
(declare-var main@_24_0 Bool )
(declare-var main@_26_0 Bool )
(declare-var main@%.13.i.i.1_0 Int )
(declare-var main@%.13.i.i.1_1 Int )
(declare-var main@%spec.select.1_0 Int )
(declare-var main@_31_0 Bool )
(declare-var main@_33_0 Bool )
(declare-var main@%.13.i.i.2_0 Int )
(declare-var main@%.13.i.i.2_1 Int )
(declare-var main@%spec.select.2_0 Int )
(declare-var main@_38_0 Bool )
(declare-var main@_40_0 Bool )
(declare-var main@%.13.i.i.3_0 Int )
(declare-var main@%.13.i.i.3_1 Int )
(declare-var main@%spec.select.3_0 Int )
(declare-var main@_45_0 Bool )
(declare-var main@_47_0 Bool )
(declare-var main@%.13.i.i.4_0 Int )
(declare-var main@%.13.i.i.4_1 Int )
(declare-var main@%spec.select.4_0 Int )
(declare-var main@_52_0 Bool )
(declare-var main@_54_0 Bool )
(declare-var main@%.13.i.i.5_0 Int )
(declare-var main@%.13.i.i.5_1 Int )
(declare-var main@%spec.select.5_0 Int )
(declare-var main@_59_0 Bool )
(declare-var main@largestGap.exit.i_0 Bool )
(declare-var main@%.13.i.i.6_0 Int )
(declare-var main@%.13.i.i.6_1 Int )
(declare-var main@largestGap.exit.i.split_0 Bool )
(rule (=> (main@entry @g_0 @find_condition_0 @nd_0) main@entry!_BAD))
(rule (=> (and (main@_19 main@%_13_0
                   main@%_1_0
                   main@%_3_0
                   main@%_5_0
                   main@%_7_0
                   main@%_9_0
                   main@%_11_0
                   @g_0
                   @find_condition_0
                   main@%.13.i.i_1)
         true
         true
         (= main@%_18_0 @g_0)
         (=> main@_19_0 (and main@_19_0 main@_17_0))
         (=> (and main@_19_0 main@_17_0) (= main@%.13.i.i_0 main@%_1_0))
         (=> (and main@_19_0 main@_17_0) (= main@%.13.i.i_1 main@%.13.i.i_0))
         main@_19_0)
    (main@_17 main@%_13_0
              main@%_1_0
              main@%_3_0
              main@%_5_0
              main@%_7_0
              main@%_9_0
              main@%_11_0
              @g_0
              @find_condition_0)))
(rule (=> (and (main@_26 main@%_13_0
                   main@%_1_0
                   main@%_3_0
                   main@%_5_0
                   main@%_7_0
                   main@%_9_0
                   main@%_11_0
                   @g_0
                   @find_condition_0
                   main@%spec.select_0
                   main@%.13.i.i.1_1)
         true
         true
         (= main@%_25_0 @g_0)
         (=> main@_26_0 (and main@_26_0 main@_24_0))
         (=> (and main@_26_0 main@_24_0) (= main@%.13.i.i.1_0 main@%_3_0))
         (=> (and main@_26_0 main@_24_0)
             (= main@%.13.i.i.1_1 main@%.13.i.i.1_0))
         main@_26_0)
    (main@_24 main@%_13_0
              main@%_1_0
              main@%_3_0
              main@%_5_0
              main@%_7_0
              main@%_9_0
              main@%_11_0
              @g_0
              @find_condition_0
              main@%spec.select_0)))
(rule (=> (and (main@_33 main@%_13_0
                   main@%_1_0
                   main@%_3_0
                   main@%_5_0
                   main@%_7_0
                   main@%_9_0
                   main@%_11_0
                   @g_0
                   @find_condition_0
                   main@%spec.select.1_0
                   main@%.13.i.i.2_1)
         true
         true
         (= main@%_32_0 @g_0)
         (=> main@_33_0 (and main@_33_0 main@_31_0))
         (=> (and main@_33_0 main@_31_0) (= main@%.13.i.i.2_0 main@%_5_0))
         (=> (and main@_33_0 main@_31_0)
             (= main@%.13.i.i.2_1 main@%.13.i.i.2_0))
         main@_33_0)
    (main@_31 main@%_13_0
              main@%_1_0
              main@%_3_0
              main@%_5_0
              main@%_7_0
              main@%_9_0
              main@%_11_0
              @g_0
              @find_condition_0
              main@%spec.select.1_0)))
(rule (=> (and (main@_40 main@%_13_0
                   main@%_1_0
                   main@%_3_0
                   main@%_5_0
                   main@%_7_0
                   main@%_9_0
                   main@%_11_0
                   @g_0
                   @find_condition_0
                   main@%spec.select.2_0
                   main@%.13.i.i.3_1)
         true
         true
         (= main@%_39_0 @g_0)
         (=> main@_40_0 (and main@_40_0 main@_38_0))
         (=> (and main@_40_0 main@_38_0) (= main@%.13.i.i.3_0 main@%_7_0))
         (=> (and main@_40_0 main@_38_0)
             (= main@%.13.i.i.3_1 main@%.13.i.i.3_0))
         main@_40_0)
    (main@_38 main@%_13_0
              main@%_1_0
              main@%_3_0
              main@%_5_0
              main@%_7_0
              main@%_9_0
              main@%_11_0
              @g_0
              @find_condition_0
              main@%spec.select.2_0)))
(rule (=> (and (main@_47 main@%_13_0
                   main@%_1_0
                   main@%_3_0
                   main@%_5_0
                   main@%_7_0
                   main@%_9_0
                   main@%_11_0
                   @g_0
                   @find_condition_0
                   main@%spec.select.3_0
                   main@%.13.i.i.4_1)
         true
         true
         (= main@%_46_0 @g_0)
         (=> main@_47_0 (and main@_47_0 main@_45_0))
         (=> (and main@_47_0 main@_45_0) (= main@%.13.i.i.4_0 main@%_9_0))
         (=> (and main@_47_0 main@_45_0)
             (= main@%.13.i.i.4_1 main@%.13.i.i.4_0))
         main@_47_0)
    (main@_45 main@%_13_0
              main@%_1_0
              main@%_3_0
              main@%_5_0
              main@%_7_0
              main@%_9_0
              main@%_11_0
              @g_0
              @find_condition_0
              main@%spec.select.3_0)))
(rule (=> (and (main@_54 main@%_13_0
                   main@%_1_0
                   main@%_3_0
                   main@%_5_0
                   main@%_7_0
                   main@%_9_0
                   main@%_11_0
                   @g_0
                   main@%spec.select.4_0
                   @find_condition_0
                   main@%.13.i.i.5_1)
         true
         true
         (= main@%_53_0 @g_0)
         (=> main@_54_0 (and main@_54_0 main@_52_0))
         (=> (and main@_54_0 main@_52_0) (= main@%.13.i.i.5_0 main@%_11_0))
         (=> (and main@_54_0 main@_52_0)
             (= main@%.13.i.i.5_1 main@%.13.i.i.5_0))
         main@_54_0)
    (main@_52 main@%_13_0
              main@%_1_0
              main@%_3_0
              main@%_5_0
              main@%_7_0
              main@%_9_0
              main@%_11_0
              @g_0
              main@%spec.select.4_0
              @find_condition_0)))
(rule (=> (and (main@largestGap.exit.i
           main@%spec.select.5_0
           main@%_13_0
           main@%.13.i.i.6_1
           main@%_1_0
           main@%_3_0
           main@%_5_0
           main@%_7_0
           main@%_9_0
           main@%_11_0)
         true
         true
         (= main@%_60_0 @g_0)
         (=> main@largestGap.exit.i_0 (and main@largestGap.exit.i_0 main@_59_0))
         (=> (and main@largestGap.exit.i_0 main@_59_0)
             (= main@%.13.i.i.6_0 main@%_13_0))
         (=> (and main@largestGap.exit.i_0 main@_59_0)
             (= main@%.13.i.i.6_1 main@%.13.i.i.6_0))
         main@largestGap.exit.i_0)
    (main@_59 main@%spec.select.5_0
              main@%_13_0
              main@%_1_0
              main@%_3_0
              main@%_5_0
              main@%_7_0
              main@%_9_0
              main@%_11_0
              @g_0)))
(rule (=> (and main@largestGap.exit.i.split
         true
         true
         (= main@%_61_0 (> main@%spec.select.5_0 main@%_13_0))
         (= main@%spec.select.6_0
            (ite main@%_61_0 main@%_13_0 main@%spec.select.5_0))
         (= main@%_62_0 (- main@%.13.i.i.6_0 main@%spec.select.6_0))
         (= main@%_63_0 (< main@%_1_0 main@%_3_0))
         (= main@%spec.select3_0 (ite main@%_63_0 main@%_3_0 main@%_1_0))
         (= main@%_64_0 (> main@%_1_0 main@%_3_0))
         (= main@%.1.i5.i_0 (ite main@%_64_0 main@%_3_0 main@%_1_0))
         (= main@%_65_0 (< main@%spec.select3_0 main@%_5_0))
         (= main@%spec.select3.1_0
            (ite main@%_65_0 main@%_5_0 main@%spec.select3_0))
         (= main@%_66_0 (> main@%.1.i5.i_0 main@%_5_0))
         (= main@%.1.i5.i.1_0 (ite main@%_66_0 main@%_5_0 main@%.1.i5.i_0))
         (= main@%_67_0 (< main@%spec.select3.1_0 main@%_7_0))
         (= main@%spec.select3.2_0
            (ite main@%_67_0 main@%_7_0 main@%spec.select3.1_0))
         (= main@%_68_0 (> main@%.1.i5.i.1_0 main@%_7_0))
         (= main@%.1.i5.i.2_0 (ite main@%_68_0 main@%_7_0 main@%.1.i5.i.1_0))
         (= main@%_69_0 (< main@%spec.select3.2_0 main@%_9_0))
         (= main@%spec.select3.3_0
            (ite main@%_69_0 main@%_9_0 main@%spec.select3.2_0))
         (= main@%_70_0 (> main@%.1.i5.i.2_0 main@%_9_0))
         (= main@%.1.i5.i.3_0 (ite main@%_70_0 main@%_9_0 main@%.1.i5.i.2_0))
         (= main@%_71_0 (< main@%spec.select3.3_0 main@%_11_0))
         (= main@%spec.select3.4_0
            (ite main@%_71_0 main@%_11_0 main@%spec.select3.3_0))
         (= main@%_72_0 (> main@%.1.i5.i.3_0 main@%_11_0))
         (= main@%.1.i5.i.4_0 (ite main@%_72_0 main@%_11_0 main@%.1.i5.i.3_0))
         (= main@%_73_0 (< main@%spec.select3.4_0 main@%_13_0))
         (= main@%spec.select3.5_0
            (ite main@%_73_0 main@%_13_0 main@%spec.select3.4_0))
         (= main@%_74_0 (> main@%.1.i5.i.4_0 main@%_13_0))
         (= main@%.1.i5.i.5_0 (ite main@%_74_0 main@%_13_0 main@%.1.i5.i.4_0))
         (= main@%_75_0 (- main@%spec.select3.5_0 main@%.1.i5.i.5_0))
         (= main@%_76_0 (= main@%_62_0 main@%_75_0))
         (not main@%_76_0)
         (=> main@largestGap.exit.i.split_0
             (and main@largestGap.exit.i.split_0 main@largestGap.exit.i_0))
         main@largestGap.exit.i.split_0)
    (main@largestGap.exit.i
      main@%spec.select.5_0
      main@%_13_0
      main@%.13.i.i.6_0
      main@%_1_0
      main@%_3_0
      main@%_5_0
      main@%_7_0
      main@%_9_0
      main@%_11_0)))
(rule main@largestGap.exit.i.split)
(rule (=> (and (main@entry!_Cond @g_0
                           @find_condition_0
                           main@%_1_0
                           main@%_3_0
                           main@%_5_0
                           main@%_7_0
                           main@%_9_0
                           main@%_11_0
                           main@%_13_0
                           main@%.13.i.i_1)
         true
         (= main@%_0_0 @nd_0)
         (= main@%_2_0 @nd_0)
         (= main@%_4_0 @nd_0)
         (= main@%_6_0 @nd_0)
         (= main@%_8_0 @nd_0)
         (= main@%_10_0 @nd_0)
         (= main@%_12_0 @nd_0)
         (= main@%_14_0 @find_condition_0)
         (= main@%_16_0 (= main@%_15_0 0))
         (=> main@_17_0 (and main@_17_0 main@entry_0))
         true
         main@_17_0
         true
         (= main@%_0_0 @nd_0)
         (= main@%_2_0 @nd_0)
         (= main@%_4_0 @nd_0)
         (= main@%_6_0 @nd_0)
         (= main@%_8_0 @nd_0)
         (= main@%_10_0 @nd_0)
         (= main@%_12_0 @nd_0)
         (= main@%_14_0 @find_condition_0)
         (= main@%_16_0 (= main@%_15_0 0))
         (=> main@_19_0 (and main@_19_0 main@entry_0))
         true
         (=> (and main@_19_0 main@entry_0) (= main@%.13.i.i_0 0))
         (=> (and main@_19_0 main@entry_0) (= main@%.13.i.i_1 main@%.13.i.i_0))
         main@_19_0)
    (main@entry @g_0 @find_condition_0 @nd_0)))
(rule (=> (and (main@_17 main@%_13_0
                   main@%_1_0
                   main@%_3_0
                   main@%_5_0
                   main@%_7_0
                   main@%_9_0
                   main@%_11_0
                   @g_0
                   @find_condition_0)
         (main@_19 main@%_13_0
                   main@%_1_0
                   main@%_3_0
                   main@%_5_0
                   main@%_7_0
                   main@%_9_0
                   main@%_11_0
                   @g_0
                   @find_condition_0
                   main@%.13.i.i_1))
    (main@entry!_Cond @g_0
                      @find_condition_0
                      main@%_1_0
                      main@%_3_0
                      main@%_5_0
                      main@%_7_0
                      main@%_9_0
                      main@%_11_0
                      main@%_13_0
                      main@%.13.i.i_1)))
(rule (=> (and (main@_19!_Cond @g_0
                         @find_condition_0
                         main@%_1_0
                         main@%_3_0
                         main@%_5_0
                         main@%_7_0
                         main@%_9_0
                         main@%_11_0
                         main@%_13_0
                         main@%spec.select_0
                         main@%.13.i.i.1_1)
         true
         (= main@%_20_0 (< main@%_1_0 100))
         (= main@%spec.select_0 (ite main@%_20_0 main@%_1_0 100))
         (= main@%_21_0 @find_condition_0)
         (= main@%_23_0 (= main@%_22_0 0))
         (=> main@_24_0 (and main@_24_0 main@_19_0))
         true
         main@_24_0
         true
         (= main@%_20_0 (< main@%_1_0 100))
         (= main@%spec.select_0 (ite main@%_20_0 main@%_1_0 100))
         (= main@%_21_0 @find_condition_0)
         (= main@%_23_0 (= main@%_22_0 0))
         (=> main@_26_0 (and main@_26_0 main@_19_0))
         true
         (=> (and main@_26_0 main@_19_0) (= main@%.13.i.i.1_0 main@%.13.i.i_0))
         (=> (and main@_26_0 main@_19_0)
             (= main@%.13.i.i.1_1 main@%.13.i.i.1_0))
         main@_26_0)
    (main@_19 main@%_13_0
              main@%_1_0
              main@%_3_0
              main@%_5_0
              main@%_7_0
              main@%_9_0
              main@%_11_0
              @g_0
              @find_condition_0
              main@%.13.i.i_0)))
(rule (=> (and (main@_24 main@%_13_0
                   main@%_1_0
                   main@%_3_0
                   main@%_5_0
                   main@%_7_0
                   main@%_9_0
                   main@%_11_0
                   @g_0
                   @find_condition_0
                   main@%spec.select_0)
         (main@_26 main@%_13_0
                   main@%_1_0
                   main@%_3_0
                   main@%_5_0
                   main@%_7_0
                   main@%_9_0
                   main@%_11_0
                   @g_0
                   @find_condition_0
                   main@%spec.select_0
                   main@%.13.i.i.1_1))
    (main@_19!_Cond @g_0
                    @find_condition_0
                    main@%_1_0
                    main@%_3_0
                    main@%_5_0
                    main@%_7_0
                    main@%_9_0
                    main@%_11_0
                    main@%_13_0
                    main@%spec.select_0
                    main@%.13.i.i.1_1)))
(rule (=> (and (main@_26!_Cond @g_0
                         @find_condition_0
                         main@%_1_0
                         main@%_3_0
                         main@%_5_0
                         main@%_7_0
                         main@%_9_0
                         main@%_11_0
                         main@%_13_0
                         main@%spec.select.1_0
                         main@%.13.i.i.2_1)
         true
         (= main@%_27_0 (> main@%spec.select_0 main@%_3_0))
         (= main@%spec.select.1_0
            (ite main@%_27_0 main@%_3_0 main@%spec.select_0))
         (= main@%_28_0 @find_condition_0)
         (= main@%_30_0 (= main@%_29_0 0))
         (=> main@_31_0 (and main@_31_0 main@_26_0))
         true
         main@_31_0
         true
         (= main@%_27_0 (> main@%spec.select_0 main@%_3_0))
         (= main@%spec.select.1_0
            (ite main@%_27_0 main@%_3_0 main@%spec.select_0))
         (= main@%_28_0 @find_condition_0)
         (= main@%_30_0 (= main@%_29_0 0))
         (=> main@_33_0 (and main@_33_0 main@_26_0))
         true
         (=> (and main@_33_0 main@_26_0)
             (= main@%.13.i.i.2_0 main@%.13.i.i.1_0))
         (=> (and main@_33_0 main@_26_0)
             (= main@%.13.i.i.2_1 main@%.13.i.i.2_0))
         main@_33_0)
    (main@_26 main@%_13_0
              main@%_1_0
              main@%_3_0
              main@%_5_0
              main@%_7_0
              main@%_9_0
              main@%_11_0
              @g_0
              @find_condition_0
              main@%spec.select_0
              main@%.13.i.i.1_0)))
(rule (=> (and (main@_31 main@%_13_0
                   main@%_1_0
                   main@%_3_0
                   main@%_5_0
                   main@%_7_0
                   main@%_9_0
                   main@%_11_0
                   @g_0
                   @find_condition_0
                   main@%spec.select.1_0)
         (main@_33 main@%_13_0
                   main@%_1_0
                   main@%_3_0
                   main@%_5_0
                   main@%_7_0
                   main@%_9_0
                   main@%_11_0
                   @g_0
                   @find_condition_0
                   main@%spec.select.1_0
                   main@%.13.i.i.2_1))
    (main@_26!_Cond @g_0
                    @find_condition_0
                    main@%_1_0
                    main@%_3_0
                    main@%_5_0
                    main@%_7_0
                    main@%_9_0
                    main@%_11_0
                    main@%_13_0
                    main@%spec.select.1_0
                    main@%.13.i.i.2_1)))
(rule (=> (and (main@_33!_Cond @g_0
                         @find_condition_0
                         main@%_1_0
                         main@%_3_0
                         main@%_5_0
                         main@%_7_0
                         main@%_9_0
                         main@%_11_0
                         main@%_13_0
                         main@%spec.select.2_0
                         main@%.13.i.i.3_1)
         true
         (= main@%_34_0 (> main@%spec.select.1_0 main@%_5_0))
         (= main@%spec.select.2_0
            (ite main@%_34_0 main@%_5_0 main@%spec.select.1_0))
         (= main@%_35_0 @find_condition_0)
         (= main@%_37_0 (= main@%_36_0 0))
         (=> main@_38_0 (and main@_38_0 main@_33_0))
         true
         main@_38_0
         true
         (= main@%_34_0 (> main@%spec.select.1_0 main@%_5_0))
         (= main@%spec.select.2_0
            (ite main@%_34_0 main@%_5_0 main@%spec.select.1_0))
         (= main@%_35_0 @find_condition_0)
         (= main@%_37_0 (= main@%_36_0 0))
         (=> main@_40_0 (and main@_40_0 main@_33_0))
         true
         (=> (and main@_40_0 main@_33_0)
             (= main@%.13.i.i.3_0 main@%.13.i.i.2_0))
         (=> (and main@_40_0 main@_33_0)
             (= main@%.13.i.i.3_1 main@%.13.i.i.3_0))
         main@_40_0)
    (main@_33 main@%_13_0
              main@%_1_0
              main@%_3_0
              main@%_5_0
              main@%_7_0
              main@%_9_0
              main@%_11_0
              @g_0
              @find_condition_0
              main@%spec.select.1_0
              main@%.13.i.i.2_0)))
(rule (=> (and (main@_38 main@%_13_0
                   main@%_1_0
                   main@%_3_0
                   main@%_5_0
                   main@%_7_0
                   main@%_9_0
                   main@%_11_0
                   @g_0
                   @find_condition_0
                   main@%spec.select.2_0)
         (main@_40 main@%_13_0
                   main@%_1_0
                   main@%_3_0
                   main@%_5_0
                   main@%_7_0
                   main@%_9_0
                   main@%_11_0
                   @g_0
                   @find_condition_0
                   main@%spec.select.2_0
                   main@%.13.i.i.3_1))
    (main@_33!_Cond @g_0
                    @find_condition_0
                    main@%_1_0
                    main@%_3_0
                    main@%_5_0
                    main@%_7_0
                    main@%_9_0
                    main@%_11_0
                    main@%_13_0
                    main@%spec.select.2_0
                    main@%.13.i.i.3_1)))
(rule (=> (and (main@_40!_Cond @g_0
                         @find_condition_0
                         main@%_1_0
                         main@%_3_0
                         main@%_5_0
                         main@%_7_0
                         main@%_9_0
                         main@%_11_0
                         main@%_13_0
                         main@%spec.select.3_0
                         main@%.13.i.i.4_1)
         true
         (= main@%_41_0 (> main@%spec.select.2_0 main@%_7_0))
         (= main@%spec.select.3_0
            (ite main@%_41_0 main@%_7_0 main@%spec.select.2_0))
         (= main@%_42_0 @find_condition_0)
         (= main@%_44_0 (= main@%_43_0 0))
         (=> main@_45_0 (and main@_45_0 main@_40_0))
         true
         main@_45_0
         true
         (= main@%_41_0 (> main@%spec.select.2_0 main@%_7_0))
         (= main@%spec.select.3_0
            (ite main@%_41_0 main@%_7_0 main@%spec.select.2_0))
         (= main@%_42_0 @find_condition_0)
         (= main@%_44_0 (= main@%_43_0 0))
         (=> main@_47_0 (and main@_47_0 main@_40_0))
         true
         (=> (and main@_47_0 main@_40_0)
             (= main@%.13.i.i.4_0 main@%.13.i.i.3_0))
         (=> (and main@_47_0 main@_40_0)
             (= main@%.13.i.i.4_1 main@%.13.i.i.4_0))
         main@_47_0)
    (main@_40 main@%_13_0
              main@%_1_0
              main@%_3_0
              main@%_5_0
              main@%_7_0
              main@%_9_0
              main@%_11_0
              @g_0
              @find_condition_0
              main@%spec.select.2_0
              main@%.13.i.i.3_0)))
(rule (=> (and (main@_45 main@%_13_0
                   main@%_1_0
                   main@%_3_0
                   main@%_5_0
                   main@%_7_0
                   main@%_9_0
                   main@%_11_0
                   @g_0
                   @find_condition_0
                   main@%spec.select.3_0)
         (main@_47 main@%_13_0
                   main@%_1_0
                   main@%_3_0
                   main@%_5_0
                   main@%_7_0
                   main@%_9_0
                   main@%_11_0
                   @g_0
                   @find_condition_0
                   main@%spec.select.3_0
                   main@%.13.i.i.4_1))
    (main@_40!_Cond @g_0
                    @find_condition_0
                    main@%_1_0
                    main@%_3_0
                    main@%_5_0
                    main@%_7_0
                    main@%_9_0
                    main@%_11_0
                    main@%_13_0
                    main@%spec.select.3_0
                    main@%.13.i.i.4_1)))
(rule (=> (and (main@_47!_Cond @g_0
                         @find_condition_0
                         main@%_1_0
                         main@%_3_0
                         main@%_5_0
                         main@%_7_0
                         main@%_9_0
                         main@%_11_0
                         main@%_13_0
                         main@%spec.select.4_0
                         main@%.13.i.i.5_1)
         true
         (= main@%_48_0 (> main@%spec.select.3_0 main@%_9_0))
         (= main@%spec.select.4_0
            (ite main@%_48_0 main@%_9_0 main@%spec.select.3_0))
         (= main@%_49_0 @find_condition_0)
         (= main@%_51_0 (= main@%_50_0 0))
         (=> main@_52_0 (and main@_52_0 main@_47_0))
         true
         main@_52_0
         true
         (= main@%_48_0 (> main@%spec.select.3_0 main@%_9_0))
         (= main@%spec.select.4_0
            (ite main@%_48_0 main@%_9_0 main@%spec.select.3_0))
         (= main@%_49_0 @find_condition_0)
         (= main@%_51_0 (= main@%_50_0 0))
         (=> main@_54_0 (and main@_54_0 main@_47_0))
         true
         (=> (and main@_54_0 main@_47_0)
             (= main@%.13.i.i.5_0 main@%.13.i.i.4_0))
         (=> (and main@_54_0 main@_47_0)
             (= main@%.13.i.i.5_1 main@%.13.i.i.5_0))
         main@_54_0)
    (main@_47 main@%_13_0
              main@%_1_0
              main@%_3_0
              main@%_5_0
              main@%_7_0
              main@%_9_0
              main@%_11_0
              @g_0
              @find_condition_0
              main@%spec.select.3_0
              main@%.13.i.i.4_0)))
(rule (=> (and (main@_52 main@%_13_0
                   main@%_1_0
                   main@%_3_0
                   main@%_5_0
                   main@%_7_0
                   main@%_9_0
                   main@%_11_0
                   @g_0
                   main@%spec.select.4_0
                   @find_condition_0)
         (main@_54 main@%_13_0
                   main@%_1_0
                   main@%_3_0
                   main@%_5_0
                   main@%_7_0
                   main@%_9_0
                   main@%_11_0
                   @g_0
                   main@%spec.select.4_0
                   @find_condition_0
                   main@%.13.i.i.5_1))
    (main@_47!_Cond @g_0
                    @find_condition_0
                    main@%_1_0
                    main@%_3_0
                    main@%_5_0
                    main@%_7_0
                    main@%_9_0
                    main@%_11_0
                    main@%_13_0
                    main@%spec.select.4_0
                    main@%.13.i.i.5_1)))
(rule (=> (and (main@_54!_Cond @g_0
                         main@%_1_0
                         main@%_3_0
                         main@%_5_0
                         main@%_7_0
                         main@%_9_0
                         main@%_11_0
                         main@%_13_0
                         main@%spec.select.5_0
                         main@%.13.i.i.6_1)
         true
         (= main@%_55_0 (> main@%spec.select.4_0 main@%_11_0))
         (= main@%spec.select.5_0
            (ite main@%_55_0 main@%_11_0 main@%spec.select.4_0))
         (= main@%_56_0 @find_condition_0)
         (= main@%_58_0 (= main@%_57_0 0))
         (=> main@_59_0 (and main@_59_0 main@_54_0))
         true
         main@_59_0
         true
         (= main@%_55_0 (> main@%spec.select.4_0 main@%_11_0))
         (= main@%spec.select.5_0
            (ite main@%_55_0 main@%_11_0 main@%spec.select.4_0))
         (= main@%_56_0 @find_condition_0)
         (= main@%_58_0 (= main@%_57_0 0))
         (=> main@largestGap.exit.i_0 (and main@largestGap.exit.i_0 main@_54_0))
         true
         (=> (and main@largestGap.exit.i_0 main@_54_0)
             (= main@%.13.i.i.6_0 main@%.13.i.i.5_0))
         (=> (and main@largestGap.exit.i_0 main@_54_0)
             (= main@%.13.i.i.6_1 main@%.13.i.i.6_0))
         main@largestGap.exit.i_0)
    (main@_54 main@%_13_0
              main@%_1_0
              main@%_3_0
              main@%_5_0
              main@%_7_0
              main@%_9_0
              main@%_11_0
              @g_0
              main@%spec.select.4_0
              @find_condition_0
              main@%.13.i.i.5_0)))
(rule (=> (and (main@_59 main@%spec.select.5_0
                   main@%_13_0
                   main@%_1_0
                   main@%_3_0
                   main@%_5_0
                   main@%_7_0
                   main@%_9_0
                   main@%_11_0
                   @g_0)
         (main@largestGap.exit.i
           main@%spec.select.5_0
           main@%_13_0
           main@%.13.i.i.6_1
           main@%_1_0
           main@%_3_0
           main@%_5_0
           main@%_7_0
           main@%_9_0
           main@%_11_0))
    (main@_54!_Cond @g_0
                    main@%_1_0
                    main@%_3_0
                    main@%_5_0
                    main@%_7_0
                    main@%_9_0
                    main@%_11_0
                    main@%_13_0
                    main@%spec.select.5_0
                    main@%.13.i.i.6_1)))
(query main@entry!_BAD)

